w = 25;
n = 19;
measures = [|3, 3,
|3, 4,
|3, 5,
|3, 6,
|3, 7,
|3, 8,
|3, 9,
|3, 10,
|3, 11,
|3, 13,
|3, 14,
|3, 17,
|3, 18,
|3, 19,
|3, 25,
|4, 5,
|4, 7,
|4, 13,
|6, 3,
|];
initial_x = [0, 3, 6, 9, 12, 15, 18, 21, 0, 3, 6, 9, 12, 15, 18, 21, 0, 4, 8];
initial_y = [0, 0, 0, 0, 0, 0, 0, 0, 10, 10, 10, 10, 10, 10, 10, 10, 35, 35, 35];